MAC/build/benchmark/ISCAS85_sat/c432.dimacs
p cnf 390 1045
c 1 -> 301
c 4 -> 146
c 8 -> 313
c 11 -> 283
c 14 -> 361
c 17 -> 116
c 21 -> 284
c 24 -> 286
c 27 -> 285
c 30 -> 120
c 34 -> 287
c 37 -> 302
c 40 -> 288
c 43 -> 150
c 47 -> 317
c 50 -> 289
c 53 -> 362
c 56 -> 125
c 60 -> 290
c 63 -> 303
c 66 -> 291
c 69 -> 153
c 73 -> 320
c 76 -> 304
c 79 -> 363
c 82 -> 155
c 86 -> 322
c 89 -> 305
c 92 -> 364
c 95 -> 157
c 99 -> 324
c 102 -> 306
c 105 -> 365
c 108 -> 159
c 112 -> 326
c 115 -> 366
-2 1 0
-3 1 0
-4 1 0
-5 1 0
-6 1 0
-7 1 0
-8 1 0
2 3 4 5 6 7 8 -1 0
9 10 -2 0
-9 -10 -2 0
9 -10 2 0
-9 10 2 0
11 12 -3 0
-11 -12 -3 0
11 -12 3 0
-11 12 3 0
13 14 -4 0
-13 -14 -4 0
13 -14 4 0
-13 14 4 0
15 16 -5 0
-15 -16 -5 0
15 -16 5 0
-15 16 5 0
17 18 -6 0
-17 -18 -6 0
17 -18 6 0
-17 18 6 0
19 20 -7 0
-19 -20 -7 0
19 -20 7 0
-19 20 7 0
21 22 -8 0
-21 -22 -8 0
21 -22 8 0
-21 22 8 0
23 9 0
-23 -9 0
24 10 0
-24 -10 0
25 11 0
-25 -11 0
26 12 0
-26 -12 0
27 13 0
-27 -13 0
28 14 0
-28 -14 0
-29 -15 0
-30 -15 0
29 30 15 0
-31 -16 0
-32 -16 0
31 32 16 0
33 17 0
34 17 0
35 17 0
36 17 0
-33 -34 -35 -36 -17 0
37 18 0
38 18 0
39 18 0
40 18 0
-37 -38 -39 -40 -18 0
33 19 0
34 19 0
41 19 0
42 19 0
-33 -34 -41 -42 -19 0
37 20 0
38 20 0
43 20 0
44 20 0
-37 -38 -43 -44 -20 0
33 21 0
35 21 0
41 21 0
45 21 0
-33 -35 -41 -45 -21 0
37 22 0
39 22 0
43 22 0
46 22 0
-37 -39 -43 -46 -22 0
47 -23 0
48 -23 0
49 -23 0
50 -23 0
51 -23 0
52 -23 0
53 -23 0
54 -23 0
55 -23 0
-47 -48 -49 -50 -51 -52 -53 -54 -55 23 0
56 -24 0
57 -24 0
58 -24 0
59 -24 0
60 -24 0
61 -24 0
62 -24 0
63 -24 0
64 -24 0
-56 -57 -58 -59 -60 -61 -62 -63 -64 24 0
65 -25 0
66 -25 0
67 -25 0
68 -25 0
69 -25 0
70 -25 0
71 -25 0
72 -25 0
73 -25 0
-65 -66 -67 -68 -69 -70 -71 -72 -73 25 0
74 -26 0
75 -26 0
76 -26 0
77 -26 0
78 -26 0
79 -26 0
80 -26 0
81 -26 0
82 -26 0
-74 -75 -76 -77 -78 -79 -80 -81 -82 26 0
83 -27 0
84 -27 0
85 -27 0
86 -27 0
87 -27 0
88 -27 0
89 -27 0
90 -27 0
91 -27 0
-83 -84 -85 -86 -87 -88 -89 -90 -91 27 0
92 -28 0
93 -28 0
94 -28 0
95 -28 0
96 -28 0
97 -28 0
98 -28 0
99 -28 0
100 -28 0
-92 -93 -94 -95 -96 -97 -98 -99 -100 28 0
101 29 0
-101 -29 0
33 -30 0
34 -30 0
102 -30 0
36 -30 0
103 -30 0
104 -30 0
105 -30 0
106 -30 0
-33 -34 -102 -36 -103 -104 -105 -106 30 0
107 31 0
-107 -31 0
37 -32 0
38 -32 0
108 -32 0
40 -32 0
109 -32 0
110 -32 0
111 -32 0
112 -32 0
-37 -38 -108 -40 -109 -110 -111 -112 32 0
113 33 0
114 33 0
115 33 0
116 33 0
-113 -114 -115 -116 -33 0
117 34 0
118 34 0
119 34 0
120 34 0
-117 -118 -119 -120 -34 0
34 35 0
121 35 0
-34 -121 -35 0
122 36 0
123 36 0
124 36 0
125 36 0
-122 -123 -124 -125 -36 0
126 37 0
127 37 0
128 37 0
116 37 0
-126 -127 -128 -116 -37 0
130 38 0
131 38 0
132 38 0
120 38 0
-130 -131 -132 -120 -38 0
38 39 0
134 39 0
-38 -134 -39 0
135 40 0
136 40 0
137 40 0
125 40 0
-135 -136 -137 -125 -40 0
34 41 0
102 41 0
139 41 0
36 41 0
-34 -102 -139 -36 -41 0
36 42 0
102 42 0
140 42 0
-36 -102 -140 -42 0
38 43 0
108 43 0
141 43 0
40 43 0
-38 -108 -141 -40 -43 0
40 44 0
108 44 0
142 44 0
-40 -108 -142 -44 0
34 45 0
102 45 0
104 45 0
143 45 0
-34 -102 -104 -143 -45 0
38 46 0
108 46 0
110 46 0
144 46 0
-38 -108 -110 -144 -46 0
145 47 0
146 47 0
-145 -146 -47 0
147 48 0
116 48 0
-147 -116 -48 0
148 49 0
120 49 0
-148 -120 -49 0
149 50 0
150 50 0
-149 -150 -50 0
151 51 0
125 51 0
-151 -125 -51 0
152 52 0
153 52 0
-152 -153 -52 0
154 53 0
155 53 0
-154 -155 -53 0
156 54 0
157 54 0
-156 -157 -54 0
158 55 0
159 55 0
-158 -159 -55 0
160 56 0
146 56 0
-160 -146 -56 0
162 57 0
116 57 0
-162 -116 -57 0
163 58 0
120 58 0
-163 -120 -58 0
164 59 0
150 59 0
-164 -150 -59 0
166 60 0
125 60 0
-166 -125 -60 0
167 61 0
153 61 0
-167 -153 -61 0
169 62 0
155 62 0
-169 -155 -62 0
171 63 0
157 63 0
-171 -157 -63 0
173 64 0
159 64 0
-173 -159 -64 0
175 65 0
176 65 0
-175 -176 -65 0
177 66 0
178 66 0
-177 -178 -66 0
179 67 0
180 67 0
-179 -180 -67 0
181 68 0
182 68 0
-181 -182 -68 0
183 69 0
184 69 0
-183 -184 -69 0
185 70 0
186 70 0
-185 -186 -70 0
187 71 0
188 71 0
-187 -188 -71 0
189 72 0
190 72 0
-189 -190 -72 0
191 73 0
192 73 0
-191 -192 -73 0
193 74 0
194 74 0
-193 -194 -74 0
195 75 0
196 75 0
-195 -196 -75 0
197 76 0
198 76 0
-197 -198 -76 0
199 77 0
200 77 0
-199 -200 -77 0
201 78 0
202 78 0
-201 -202 -78 0
203 79 0
204 79 0
-203 -204 -79 0
205 80 0
206 80 0
-205 -206 -80 0
207 81 0
208 81 0
-207 -208 -81 0
209 82 0
210 82 0
-209 -210 -82 0
211 83 0
212 83 0
-211 -212 -83 0
213 84 0
214 84 0
-213 -214 -84 0
215 85 0
216 85 0
-215 -216 -85 0
217 86 0
218 86 0
-217 -218 -86 0
219 87 0
220 87 0
-219 -220 -87 0
221 88 0
222 88 0
-221 -222 -88 0
223 89 0
224 89 0
-223 -224 -89 0
225 90 0
226 90 0
-225 -226 -90 0
227 91 0
228 91 0
-227 -228 -91 0
229 92 0
230 92 0
-229 -230 -92 0
231 93 0
232 93 0
-231 -232 -93 0
233 94 0
234 94 0
-233 -234 -94 0
235 95 0
236 95 0
-235 -236 -95 0
237 96 0
238 96 0
-237 -238 -96 0
239 97 0
240 97 0
-239 -240 -97 0
241 98 0
242 98 0
-241 -242 -98 0
243 99 0
244 99 0
-243 -244 -99 0
245 100 0
246 100 0
-245 -246 -100 0
146 101 0
247 101 0
248 101 0
249 101 0
-146 -247 -248 -249 -101 0
250 102 0
251 102 0
252 102 0
150 102 0
-250 -251 -252 -150 -102 0
253 103 0
254 103 0
255 103 0
153 103 0
-253 -254 -255 -153 -103 0
256 104 0
257 104 0
258 104 0
155 104 0
-256 -257 -258 -155 -104 0
259 105 0
260 105 0
261 105 0
157 105 0
-259 -260 -261 -157 -105 0
262 106 0
263 106 0
264 106 0
159 106 0
-262 -263 -264 -159 -106 0
146 107 0
265 107 0
266 107 0
267 107 0
-146 -265 -266 -267 -107 0
268 108 0
269 108 0
270 108 0
150 108 0
-268 -269 -270 -150 -108 0
271 109 0
272 109 0
273 109 0
153 109 0
-271 -272 -273 -153 -109 0
274 110 0
275 110 0
276 110 0
155 110 0
-274 -275 -276 -155 -110 0
277 111 0
278 111 0
279 111 0
157 111 0
-277 -278 -279 -157 -111 0
280 112 0
281 112 0
282 112 0
159 112 0
-280 -281 -282 -159 -112 0
9 113 0
283 113 0
-9 -283 -113 0
11 114 0
284 114 0
-11 -284 -114 0
13 115 0
285 115 0
-13 -285 -115 0
9 117 0
286 117 0
-9 -286 -117 0
11 118 0
287 118 0
-11 -287 -118 0
13 119 0
288 119 0
-13 -288 -119 0
102 121 0
-102 -121 0
9 122 0
289 122 0
-9 -289 -122 0
11 123 0
290 123 0
-11 -290 -123 0
13 124 0
291 124 0
-13 -291 -124 0
10 126 0
283 126 0
-10 -283 -126 0
12 127 0
284 127 0
-12 -284 -127 0
14 128 0
285 128 0
-14 -285 -128 0
10 130 0
286 130 0
-10 -286 -130 0
12 131 0
287 131 0
-12 -287 -131 0
14 132 0
288 132 0
-14 -288 -132 0
108 134 0
-108 -134 0
10 135 0
289 135 0
-10 -289 -135 0
12 136 0
290 136 0
-12 -290 -136 0
14 137 0
291 137 0
-14 -291 -137 0
103 139 0
-103 -139 0
104 140 0
-104 -140 0
109 141 0
-109 -141 0
110 142 0
-110 -142 0
105 143 0
-105 -143 0
111 144 0
-111 -144 0
301 145 0
-301 -145 0
283 147 0
-283 -147 0
286 148 0
-286 -148 0
302 149 0
-302 -149 0
289 151 0
-289 -151 0
303 152 0
-303 -152 0
304 154 0
-304 -154 0
305 156 0
-305 -156 0
306 158 0
-306 -158 0
301 160 0
-301 -160 0
283 162 0
-283 -162 0
286 163 0
-286 -163 0
302 164 0
-302 -164 0
289 166 0
-289 -166 0
303 167 0
-303 -167 0
304 169 0
-304 -169 0
305 171 0
-305 -171 0
306 173 0
-306 -173 0
9 47 -175 0
-9 -47 -175 0
9 -47 175 0
-9 47 175 0
-313 -176 0
-314 -176 0
313 314 176 0
9 48 -177 0
-9 -48 -177 0
9 -48 177 0
-9 48 177 0
-284 -178 0
-315 -178 0
284 315 178 0
9 49 -179 0
-9 -49 -179 0
9 -49 179 0
-9 49 179 0
-287 -180 0
-316 -180 0
287 316 180 0
9 50 -181 0
-9 -50 -181 0
9 -50 181 0
-9 50 181 0
-317 -182 0
-318 -182 0
317 318 182 0
9 51 -183 0
-9 -51 -183 0
9 -51 183 0
-9 51 183 0
-290 -184 0
-319 -184 0
290 319 184 0
9 52 -185 0
-9 -52 -185 0
9 -52 185 0
-9 52 185 0
-320 -186 0
-321 -186 0
320 321 186 0
9 53 -187 0
-9 -53 -187 0
9 -53 187 0
-9 53 187 0
-322 -188 0
-323 -188 0
322 323 188 0
9 54 -189 0
-9 -54 -189 0
9 -54 189 0
-9 54 189 0
-324 -190 0
-325 -190 0
324 325 190 0
9 55 -191 0
-9 -55 -191 0
9 -55 191 0
-9 55 191 0
-326 -192 0
-327 -192 0
326 327 192 0
10 56 -193 0
-10 -56 -193 0
10 -56 193 0
-10 56 193 0
-313 -194 0
-329 -194 0
313 329 194 0
10 57 -195 0
-10 -57 -195 0
10 -57 195 0
-10 57 195 0
-284 -196 0
-330 -196 0
284 330 196 0
10 58 -197 0
-10 -58 -197 0
10 -58 197 0
-10 58 197 0
-287 -198 0
-331 -198 0
287 331 198 0
10 59 -199 0
-10 -59 -199 0
10 -59 199 0
-10 59 199 0
-317 -200 0
-333 -200 0
317 333 200 0
10 60 -201 0
-10 -60 -201 0
10 -60 201 0
-10 60 201 0
-290 -202 0
-334 -202 0
290 334 202 0
10 61 -203 0
-10 -61 -203 0
10 -61 203 0
-10 61 203 0
-320 -204 0
-336 -204 0
320 336 204 0
10 62 -205 0
-10 -62 -205 0
10 -62 205 0
-10 62 205 0
-322 -206 0
-338 -206 0
322 338 206 0
10 63 -207 0
-10 -63 -207 0
10 -63 207 0
-10 63 207 0
-324 -208 0
-340 -208 0
324 340 208 0
10 64 -209 0
-10 -64 -209 0
10 -64 209 0
-10 64 209 0
-326 -210 0
-342 -210 0
326 342 210 0
11 65 -211 0
-11 -65 -211 0
11 -65 211 0
-11 65 211 0
343 212 0
-343 -212 0
11 66 -213 0
-11 -66 -213 0
11 -66 213 0
-11 66 213 0
344 214 0
-344 -214 0
11 67 -215 0
-11 -67 -215 0
11 -67 215 0
-11 67 215 0
345 216 0
-345 -216 0
11 68 -217 0
-11 -68 -217 0
11 -68 217 0
-11 68 217 0
346 218 0
-346 -218 0
11 69 -219 0
-11 -69 -219 0
11 -69 219 0
-11 69 219 0
347 220 0
-347 -220 0
11 70 -221 0
-11 -70 -221 0
11 -70 221 0
-11 70 221 0
348 222 0
-348 -222 0
11 71 -223 0
-11 -71 -223 0
11 -71 223 0
-11 71 223 0
349 224 0
-349 -224 0
11 72 -225 0
-11 -72 -225 0
11 -72 225 0
-11 72 225 0
350 226 0
-350 -226 0
11 73 -227 0
-11 -73 -227 0
11 -73 227 0
-11 73 227 0
351 228 0
-351 -228 0
12 74 -229 0
-12 -74 -229 0
12 -74 229 0
-12 74 229 0
352 230 0
-352 -230 0
12 75 -231 0
-12 -75 -231 0
12 -75 231 0
-12 75 231 0
353 232 0
-353 -232 0
12 76 -233 0
-12 -76 -233 0
12 -76 233 0
-12 76 233 0
354 234 0
-354 -234 0
12 77 -235 0
-12 -77 -235 0
12 -77 235 0
-12 77 235 0
355 236 0
-355 -236 0
12 78 -237 0
-12 -78 -237 0
12 -78 237 0
-12 78 237 0
356 238 0
-356 -238 0
12 79 -239 0
-12 -79 -239 0
12 -79 239 0
-12 79 239 0
357 240 0
-357 -240 0
12 80 -241 0
-12 -80 -241 0
12 -80 241 0
-12 80 241 0
358 242 0
-358 -242 0
12 81 -243 0
-12 -81 -243 0
12 -81 243 0
-12 81 243 0
359 244 0
-359 -244 0
12 82 -245 0
-12 -82 -245 0
12 -82 245 0
-12 82 245 0
360 246 0
-360 -246 0
301 247 0
9 247 0
-301 -9 -247 0
313 248 0
11 248 0
-313 -11 -248 0
361 249 0
13 249 0
-361 -13 -249 0
9 250 0
302 250 0
-9 -302 -250 0
11 251 0
317 251 0
-11 -317 -251 0
13 252 0
362 252 0
-13 -362 -252 0
9 253 0
303 253 0
-9 -303 -253 0
11 254 0
320 254 0
-11 -320 -254 0
13 255 0
363 255 0
-13 -363 -255 0
9 256 0
304 256 0
-9 -304 -256 0
11 257 0
322 257 0
-11 -322 -257 0
13 258 0
364 258 0
-13 -364 -258 0
9 259 0
305 259 0
-9 -305 -259 0
11 260 0
324 260 0
-11 -324 -260 0
13 261 0
365 261 0
-13 -365 -261 0
9 262 0
306 262 0
-9 -306 -262 0
11 263 0
326 263 0
-11 -326 -263 0
13 264 0
366 264 0
-13 -366 -264 0
301 265 0
10 265 0
-301 -10 -265 0
313 266 0
12 266 0
-313 -12 -266 0
361 267 0
14 267 0
-361 -14 -267 0
10 268 0
302 268 0
-10 -302 -268 0
12 269 0
317 269 0
-12 -317 -269 0
14 270 0
362 270 0
-14 -362 -270 0
10 271 0
303 271 0
-10 -303 -271 0
12 272 0
320 272 0
-12 -320 -272 0
14 273 0
363 273 0
-14 -363 -273 0
10 274 0
304 274 0
-10 -304 -274 0
12 275 0
322 275 0
-12 -322 -275 0
14 276 0
364 276 0
-14 -364 -276 0
10 277 0
305 277 0
-10 -305 -277 0
12 278 0
324 278 0
-12 -324 -278 0
14 279 0
365 279 0
-14 -365 -279 0
10 280 0
306 280 0
-10 -306 -280 0
12 281 0
326 281 0
-12 -326 -281 0
14 282 0
366 282 0
-14 -366 -282 0
146 314 0
-146 -314 0
116 315 0
-116 -315 0
120 316 0
-120 -316 0
150 318 0
-150 -318 0
125 319 0
-125 -319 0
153 321 0
-153 -321 0
155 323 0
-155 -323 0
157 325 0
-157 -325 0
159 327 0
-159 -327 0
146 329 0
-146 -329 0
116 330 0
-116 -330 0
120 331 0
-120 -331 0
150 333 0
-150 -333 0
125 334 0
-125 -334 0
153 336 0
-153 -336 0
155 338 0
-155 -338 0
157 340 0
-157 -340 0
159 342 0
-159 -342 0
175 343 0
373 343 0
-175 -373 -343 0
177 344 0
374 344 0
-177 -374 -344 0
179 345 0
375 345 0
-179 -375 -345 0
181 346 0
376 346 0
-181 -376 -346 0
183 347 0
377 347 0
-183 -377 -347 0
185 348 0
378 348 0
-185 -378 -348 0
187 349 0
379 349 0
-187 -379 -349 0
189 350 0
380 350 0
-189 -380 -350 0
191 351 0
381 351 0
-191 -381 -351 0
193 352 0
382 352 0
-193 -382 -352 0
195 353 0
383 353 0
-195 -383 -353 0
197 354 0
384 354 0
-197 -384 -354 0
199 355 0
385 355 0
-199 -385 -355 0
201 356 0
386 356 0
-201 -386 -356 0
203 357 0
387 357 0
-203 -387 -357 0
205 358 0
388 358 0
-205 -388 -358 0
207 359 0
389 359 0
-207 -389 -359 0
209 360 0
390 360 0
-209 -390 -360 0
-361 -373 0
-314 -373 0
361 314 373 0
-285 -374 0
-315 -374 0
285 315 374 0
-288 -375 0
-316 -375 0
288 316 375 0
-362 -376 0
-318 -376 0
362 318 376 0
-291 -377 0
-319 -377 0
291 319 377 0
-363 -378 0
-321 -378 0
363 321 378 0
-364 -379 0
-323 -379 0
364 323 379 0
-365 -380 0
-325 -380 0
365 325 380 0
-366 -381 0
-327 -381 0
366 327 381 0
-361 -382 0
-329 -382 0
361 329 382 0
-285 -383 0
-330 -383 0
285 330 383 0
-288 -384 0
-331 -384 0
288 331 384 0
-362 -385 0
-333 -385 0
362 333 385 0
-291 -386 0
-334 -386 0
291 334 386 0
-363 -387 0
-336 -387 0
363 336 387 0
-364 -388 0
-338 -388 0
364 338 388 0
-365 -389 0
-340 -389 0
365 340 389 0
-366 -390 0
-342 -390 0
366 342 390 0
1 0
