MAC/examples/mac_results/isc85_cnf/c432.cnf
c Result of efficient AIG-to-CNF conversion using package CNF
p cnf 110 361
-2 3 4 5 6 0
2 -6 0
2 -5 0
2 -3 0
2 -4 0
3 107 -109 0
-3 -107 0
-3 109 0
4 103 -105 0
-4 -103 0
-4 105 0
5 99 -101 0
-5 -99 0
-5 101 0
-6 7 8 9 10 0
6 -10 0
6 -9 0
6 -7 0
6 -8 0
7 95 -97 0
-7 -95 0
-7 97 0
8 91 -93 0
-8 -91 0
-8 93 0
9 87 -89 0
-9 -87 0
-9 89 0
-10 -79 11 12 0
-10 81 11 12 0
10 -12 0
10 -11 0
10 79 -81 0
11 83 -85 0
-11 -83 0
-11 85 0
12 76 -77 0
-12 -76 0
-12 77 0
-13 14 16 18 20 0
13 -20 0
13 -18 0
13 -14 0
13 -16 0
14 -109 110 15 0
-14 109 0
-14 -15 0
-14 -110 0
15 3 -2 0
-15 -3 0
-15 2 0
16 -105 106 17 0
-16 105 0
-16 -17 0
-16 -106 0
17 4 -2 0
-17 -4 0
-17 2 0
18 -101 102 19 0
-18 101 0
-18 -19 0
-18 -102 0
19 5 -2 0
-19 -5 0
-19 2 0
-20 21 22 23 24 0
20 -24 0
20 -23 0
20 -21 0
20 -22 0
21 -95 -97 98 2 0
21 95 -97 98 -2 0
-21 -98 0
-21 95 2 0
-21 97 0
-21 -95 -2 0
22 -91 -93 94 2 0
22 91 -93 94 -2 0
-22 -94 0
-22 91 2 0
-22 93 0
-22 -91 -2 0
23 -87 -89 90 2 0
23 87 -89 90 -2 0
-23 -90 0
-23 87 2 0
-23 89 0
-23 -87 -2 0
-24 25 26 27 0
24 -25 0
24 -27 0
24 -26 0
25 -83 -85 86 2 0
25 83 -85 86 -2 0
-25 -86 0
-25 83 2 0
-25 85 0
-25 -83 -2 0
26 -76 -77 78 2 0
26 76 -77 78 -2 0
-26 -78 0
-26 76 2 0
-26 77 0
-26 -76 -2 0
27 -79 -81 82 2 0
27 79 -81 82 -2 0
-27 -82 0
-27 79 2 0
-27 81 0
-27 -79 -2 0
-28 29 30 0
-28 14 -13 30 0
28 -30 0
28 13 -29 0
28 -14 -29 0
29 -109 111 15 0
-29 109 0
-29 -15 0
-29 -111 0
-30 31 32 0
-30 16 -13 32 0
30 -32 0
30 13 -31 0
30 -16 -31 0
31 -105 108 17 0
-31 105 0
-31 -17 0
-31 -108 0
-32 33 34 0
-32 18 -13 34 0
32 -34 0
32 13 -33 0
32 -18 -33 0
33 -101 104 19 0
-33 101 0
-33 -19 0
-33 -104 0
-34 35 36 0
-34 -21 13 36 0
-34 21 -13 36 0
34 -36 0
34 21 13 -35 0
34 -21 -13 -35 0
35 -95 -97 100 2 0
35 95 -97 100 -2 0
-35 -100 0
-35 95 2 0
-35 97 0
-35 -95 -2 0
-36 37 38 0
-36 -22 13 38 0
-36 22 -13 38 0
36 -38 0
36 22 13 -37 0
36 -22 -13 -37 0
37 -91 -93 96 2 0
37 91 -93 96 -2 0
-37 -96 0
-37 91 2 0
-37 93 0
-37 -91 -2 0
-38 39 40 0
-38 -23 13 40 0
-38 23 -13 40 0
38 -40 0
38 23 13 -39 0
38 -23 -13 -39 0
39 -87 -89 92 2 0
39 87 -89 92 -2 0
-39 -92 0
-39 87 2 0
-39 89 0
-39 -87 -2 0
-40 41 42 0
-40 -25 13 42 0
-40 25 -13 42 0
40 -42 0
40 25 13 -41 0
40 -25 -13 -41 0
41 -83 -85 88 2 0
41 83 -85 88 -2 0
-41 -88 0
-41 83 2 0
-41 85 0
-41 -83 -2 0
-42 43 45 0
-42 -27 13 43 0
-42 27 -13 43 0
42 -43 0
42 27 13 -45 0
42 -27 -13 -45 0
43 26 13 -44 0
43 -26 -13 -44 0
-43 44 0
-43 26 -13 0
-43 -26 13 0
44 -76 -77 80 2 0
44 76 -77 80 -2 0
-44 -80 0
-44 76 2 0
-44 77 0
-44 -76 -2 0
45 -79 -81 84 2 0
45 79 -81 84 -2 0
-45 -84 0
-45 79 2 0
-45 81 0
-45 -79 -2 0
46 47 -49 0
46 -80 -28 -49 0
-46 49 0
-46 28 -47 0
-46 80 -47 0
47 76 -77 48 0
47 -77 2 48 0
-47 77 0
-47 -48 0
-47 -76 -2 0
48 -78 -13 0
-48 78 0
-48 13 0
-49 50 52 54 56 0
49 -56 0
49 -54 0
49 -50 0
49 -52 0
50 -109 111 51 0
50 -109 28 51 0
-50 -51 0
-50 109 0
-50 -111 -28 0
-51 107 110 0
-51 2 13 0
-51 107 13 0
-51 110 2 0
51 -107 -2 0
51 -110 -13 0
52 -105 108 53 0
52 -105 28 53 0
-52 -53 0
-52 105 0
-52 -108 -28 0
-53 103 106 0
-53 2 13 0
-53 103 13 0
-53 106 2 0
53 -103 -2 0
53 -106 -13 0
54 -101 104 55 0
54 -101 28 55 0
-54 -55 0
-54 101 0
-54 -104 -28 0
-55 99 102 0
-55 2 13 0
-55 99 13 0
-55 102 2 0
55 -99 -2 0
55 -102 -13 0
-56 57 59 61 63 0
56 -63 0
56 -61 0
56 -57 0
56 -59 0
57 -97 100 58 0
57 -97 28 58 0
-57 -58 0
-57 97 0
-57 -100 -28 0
-58 95 98 0
-58 2 13 0
-58 95 13 0
-58 98 2 0
58 -95 -2 0
58 -98 -13 0
59 -93 96 60 0
59 -93 28 60 0
-59 -60 0
-59 93 0
-59 -96 -28 0
-60 91 94 0
-60 2 13 0
-60 91 13 0
-60 94 2 0
60 -91 -2 0
60 -94 -13 0
61 -89 92 62 0
61 -89 28 62 0
-61 -62 0
-61 89 0
-61 -92 -28 0
-62 87 90 0
-62 2 13 0
-62 87 13 0
-62 90 2 0
62 -87 -2 0
62 -90 -13 0
-63 64 66 0
63 -64 0
63 -66 0
64 -81 84 65 0
64 -81 28 65 0
-64 -65 0
-64 81 0
-64 -84 -28 0
-65 79 82 0
-65 2 13 0
-65 79 13 0
-65 82 2 0
65 -79 -2 0
65 -82 -13 0
66 -85 88 67 0
66 -85 28 67 0
-66 -67 0
-66 85 0
-66 -88 -28 0
-67 83 86 0
-67 2 13 0
-67 83 13 0
-67 86 2 0
67 -83 -2 0
67 -86 -13 0
-68 59 63 69 0
68 -59 0
68 -63 0
68 -69 0
69 -61 66 0
-69 61 0
-69 -66 0
-70 54 71 0
-70 -59 71 0
-70 -61 71 0
70 -71 0
70 -54 59 61 0
-71 63 72 0
71 -63 0
71 -72 0
72 -57 59 73 0
-72 57 0
-72 -59 0
-72 -73 0
-73 61 66 0
73 -61 0
73 -66 0
-74 52 75 0
-74 -54 75 0
-74 -73 75 0
74 -75 0
74 -52 54 73 0
-75 64 69 72 0
75 -64 0
75 -72 0
75 -69 0
-112 0
2 0
13 0
28 0
46 0
68 0
70 0
74 0

